NAME : portcgen-18-19
COMMENT : portcgen N=18, seed=19
TYPE : TSP
DIMENSION : 18
EDGE_WEIGHT_TYPE : EUC_2D
NODE_COORD_SECTION
1 -55494 -190384
2 -207832 59489
3 58541 388499
4 -332727 151011
5 -240449 -77592
6 24027 -88426
7 412467 -63040
8 509476 90390
9 6168 -97897
10 203212 147657
11 -466788 209045
12 -211044 60896
13 -37852 -562309
14 -170221 170541
15 -300331 -3612
16 129016 26298
17 -150736 -278658
18 -223997 40673
